1) Gurobi creating solved Sudokus/Sudoku_Size2.lp
\ Model Sudoku Problem
\ LP format - for model browsing. Use MPS format to capture full model detail.
Minimize
 
Subject To
 R0: x_1_1_1 + x_2_1_1 + x_3_1_1 + x_4_1_1 = 1
 R1: x_1_1_2 + x_2_1_2 + x_3_1_2 + x_4_1_2 = 1
 R2: x_1_1_3 + x_2_1_3 + x_3_1_3 + x_4_1_3 = 1
 R3: x_1_1_4 + x_2_1_4 + x_3_1_4 + x_4_1_4 = 1
 R4: x_1_2_1 + x_2_2_1 + x_3_2_1 + x_4_2_1 = 1
 R5: x_1_2_2 + x_2_2_2 + x_3_2_2 + x_4_2_2 = 1
 R6: x_1_2_3 + x_2_2_3 + x_3_2_3 + x_4_2_3 = 1
 R7: x_1_2_4 + x_2_2_4 + x_3_2_4 + x_4_2_4 = 1
 R8: x_1_3_1 + x_2_3_1 + x_3_3_1 + x_4_3_1 = 1
 R9: x_1_3_2 + x_2_3_2 + x_3_3_2 + x_4_3_2 = 1
 R10: x_1_3_3 + x_2_3_3 + x_3_3_3 + x_4_3_3 = 1
 R11: x_1_3_4 + x_2_3_4 + x_3_3_4 + x_4_3_4 = 1
 R12: x_1_4_1 + x_2_4_1 + x_3_4_1 + x_4_4_1 = 1
 R13: x_1_4_2 + x_2_4_2 + x_3_4_2 + x_4_4_2 = 1
 R14: x_1_4_3 + x_2_4_3 + x_3_4_3 + x_4_4_3 = 1
 R15: x_1_4_4 + x_2_4_4 + x_3_4_4 + x_4_4_4 = 1
 R16: x_1_1_1 + x_1_1_2 + x_1_1_3 + x_1_1_4 = 1
 R17: x_2_1_1 + x_2_1_2 + x_2_1_3 + x_2_1_4 = 1
 R18: x_3_1_1 + x_3_1_2 + x_3_1_3 + x_3_1_4 = 1
 R19: x_4_1_1 + x_4_1_2 + x_4_1_3 + x_4_1_4 = 1
 R20: x_1_2_1 + x_1_2_2 + x_1_2_3 + x_1_2_4 = 1
 R21: x_2_2_1 + x_2_2_2 + x_2_2_3 + x_2_2_4 = 1
 R22: x_3_2_1 + x_3_2_2 + x_3_2_3 + x_3_2_4 = 1
 R23: x_4_2_1 + x_4_2_2 + x_4_2_3 + x_4_2_4 = 1
 R24: x_1_3_1 + x_1_3_2 + x_1_3_3 + x_1_3_4 = 1
 R25: x_2_3_1 + x_2_3_2 + x_2_3_3 + x_2_3_4 = 1
 R26: x_3_3_1 + x_3_3_2 + x_3_3_3 + x_3_3_4 = 1
 R27: x_4_3_1 + x_4_3_2 + x_4_3_3 + x_4_3_4 = 1
 R28: x_1_4_1 + x_1_4_2 + x_1_4_3 + x_1_4_4 = 1
 R29: x_2_4_1 + x_2_4_2 + x_2_4_3 + x_2_4_4 = 1
 R30: x_3_4_1 + x_3_4_2 + x_3_4_3 + x_3_4_4 = 1
 R31: x_4_4_1 + x_4_4_2 + x_4_4_3 + x_4_4_4 = 1
 R32: x_1_1_1 + x_1_2_1 + x_1_3_1 + x_1_4_1 = 1
 R33: x_2_1_1 + x_2_2_1 + x_2_3_1 + x_2_4_1 = 1
 R34: x_3_1_1 + x_3_2_1 + x_3_3_1 + x_3_4_1 = 1
 R35: x_4_1_1 + x_4_2_1 + x_4_3_1 + x_4_4_1 = 1
 R36: x_1_1_2 + x_1_2_2 + x_1_3_2 + x_1_4_2 = 1
 R37: x_2_1_2 + x_2_2_2 + x_2_3_2 + x_2_4_2 = 1
 R38: x_3_1_2 + x_3_2_2 + x_3_3_2 + x_3_4_2 = 1
 R39: x_4_1_2 + x_4_2_2 + x_4_3_2 + x_4_4_2 = 1
 R40: x_1_1_3 + x_1_2_3 + x_1_3_3 + x_1_4_3 = 1
 R41: x_2_1_3 + x_2_2_3 + x_2_3_3 + x_2_4_3 = 1
 R42: x_3_1_3 + x_3_2_3 + x_3_3_3 + x_3_4_3 = 1
 R43: x_4_1_3 + x_4_2_3 + x_4_3_3 + x_4_4_3 = 1
 R44: x_1_1_4 + x_1_2_4 + x_1_3_4 + x_1_4_4 = 1
 R45: x_2_1_4 + x_2_2_4 + x_2_3_4 + x_2_4_4 = 1
 R46: x_3_1_4 + x_3_2_4 + x_3_3_4 + x_3_4_4 = 1
 R47: x_4_1_4 + x_4_2_4 + x_4_3_4 + x_4_4_4 = 1
 R48: x_1_1_1 + x_1_1_2 + x_1_2_1 + x_1_2_2 = 1
 R49: x_1_1_3 + x_1_1_4 + x_1_2_3 + x_1_2_4 = 1
 R50: x_1_3_1 + x_1_3_2 + x_1_4_1 + x_1_4_2 = 1
 R51: x_1_3_3 + x_1_3_4 + x_1_4_3 + x_1_4_4 = 1
 R52: x_2_1_1 + x_2_1_2 + x_2_2_1 + x_2_2_2 = 1
 R53: x_2_1_3 + x_2_1_4 + x_2_2_3 + x_2_2_4 = 1
 R54: x_2_3_1 + x_2_3_2 + x_2_4_1 + x_2_4_2 = 1
 R55: x_2_3_3 + x_2_3_4 + x_2_4_3 + x_2_4_4 = 1
 R56: x_3_1_1 + x_3_1_2 + x_3_2_1 + x_3_2_2 = 1
 R57: x_3_1_3 + x_3_1_4 + x_3_2_3 + x_3_2_4 = 1
 R58: x_3_3_1 + x_3_3_2 + x_3_4_1 + x_3_4_2 = 1
 R59: x_3_3_3 + x_3_3_4 + x_3_4_3 + x_3_4_4 = 1
 R60: x_4_1_1 + x_4_1_2 + x_4_2_1 + x_4_2_2 = 1
 R61: x_4_1_3 + x_4_1_4 + x_4_2_3 + x_4_2_4 = 1
 R62: x_4_3_1 + x_4_3_2 + x_4_4_1 + x_4_4_2 = 1
 R63: x_4_3_3 + x_4_3_4 + x_4_4_3 + x_4_4_4 = 1
Bounds
Binaries
 x_1_1_1 x_1_1_2 x_1_1_3 x_1_1_4 x_1_2_1 x_1_2_2 x_1_2_3 x_1_2_4 x_1_3_1
 x_1_3_2 x_1_3_3 x_1_3_4 x_1_4_1 x_1_4_2 x_1_4_3 x_1_4_4 x_2_1_1 x_2_1_2
 x_2_1_3 x_2_1_4 x_2_2_1 x_2_2_2 x_2_2_3 x_2_2_4 x_2_3_1 x_2_3_2 x_2_3_3
 x_2_3_4 x_2_4_1 x_2_4_2 x_2_4_3 x_2_4_4 x_3_1_1 x_3_1_2 x_3_1_3 x_3_1_4
 x_3_2_1 x_3_2_2 x_3_2_3 x_3_2_4 x_3_3_1 x_3_3_2 x_3_3_3 x_3_3_4 x_3_4_1
 x_3_4_2 x_3_4_3 x_3_4_4 x_4_1_1 x_4_1_2 x_4_1_3 x_4_1_4 x_4_2_1 x_4_2_2
 x_4_2_3 x_4_2_4 x_4_3_1 x_4_3_2 x_4_3_3 x_4_3_4 x_4_4_1 x_4_4_2 x_4_4_3
 x_4_4_4
End
