1) Gurobi creating solved Sudokus/Sudoku_Size2.mps
NAME Sudoku Problem
ROWS
 N  OBJ
 E  R0      
 E  R1      
 E  R2      
 E  R3      
 E  R4      
 E  R5      
 E  R6      
 E  R7      
 E  R8      
 E  R9      
 E  R10     
 E  R11     
 E  R12     
 E  R13     
 E  R14     
 E  R15     
 E  R16     
 E  R17     
 E  R18     
 E  R19     
 E  R20     
 E  R21     
 E  R22     
 E  R23     
 E  R24     
 E  R25     
 E  R26     
 E  R27     
 E  R28     
 E  R29     
 E  R30     
 E  R31     
 E  R32     
 E  R33     
 E  R34     
 E  R35     
 E  R36     
 E  R37     
 E  R38     
 E  R39     
 E  R40     
 E  R41     
 E  R42     
 E  R43     
 E  R44     
 E  R45     
 E  R46     
 E  R47     
 E  R48     
 E  R49     
 E  R50     
 E  R51     
 E  R52     
 E  R53     
 E  R54     
 E  R55     
 E  R56     
 E  R57     
 E  R58     
 E  R59     
 E  R60     
 E  R61     
 E  R62     
 E  R63     
COLUMNS
    MARKER    'MARKER'                 'INTORG'
    x_1_1_1   R0        1
    x_1_1_1   R16       1
    x_1_1_1   R32       1
    x_1_1_1   R48       1
    x_1_1_2   R1        1
    x_1_1_2   R16       1
    x_1_1_2   R36       1
    x_1_1_2   R48       1
    x_1_1_3   R2        1
    x_1_1_3   R16       1
    x_1_1_3   R40       1
    x_1_1_3   R49       1
    x_1_1_4   R3        1
    x_1_1_4   R16       1
    x_1_1_4   R44       1
    x_1_1_4   R49       1
    x_1_2_1   R4        1
    x_1_2_1   R20       1
    x_1_2_1   R32       1
    x_1_2_1   R48       1
    x_1_2_2   R5        1
    x_1_2_2   R20       1
    x_1_2_2   R36       1
    x_1_2_2   R48       1
    x_1_2_3   R6        1
    x_1_2_3   R20       1
    x_1_2_3   R40       1
    x_1_2_3   R49       1
    x_1_2_4   R7        1
    x_1_2_4   R20       1
    x_1_2_4   R44       1
    x_1_2_4   R49       1
    x_1_3_1   R8        1
    x_1_3_1   R24       1
    x_1_3_1   R32       1
    x_1_3_1   R50       1
    x_1_3_2   R9        1
    x_1_3_2   R24       1
    x_1_3_2   R36       1
    x_1_3_2   R50       1
    x_1_3_3   R10       1
    x_1_3_3   R24       1
    x_1_3_3   R40       1
    x_1_3_3   R51       1
    x_1_3_4   R11       1
    x_1_3_4   R24       1
    x_1_3_4   R44       1
    x_1_3_4   R51       1
    x_1_4_1   R12       1
    x_1_4_1   R28       1
    x_1_4_1   R32       1
    x_1_4_1   R50       1
    x_1_4_2   R13       1
    x_1_4_2   R28       1
    x_1_4_2   R36       1
    x_1_4_2   R50       1
    x_1_4_3   R14       1
    x_1_4_3   R28       1
    x_1_4_3   R40       1
    x_1_4_3   R51       1
    x_1_4_4   R15       1
    x_1_4_4   R28       1
    x_1_4_4   R44       1
    x_1_4_4   R51       1
    x_2_1_1   R0        1
    x_2_1_1   R17       1
    x_2_1_1   R33       1
    x_2_1_1   R52       1
    x_2_1_2   R1        1
    x_2_1_2   R17       1
    x_2_1_2   R37       1
    x_2_1_2   R52       1
    x_2_1_3   R2        1
    x_2_1_3   R17       1
    x_2_1_3   R41       1
    x_2_1_3   R53       1
    x_2_1_4   R3        1
    x_2_1_4   R17       1
    x_2_1_4   R45       1
    x_2_1_4   R53       1
    x_2_2_1   R4        1
    x_2_2_1   R21       1
    x_2_2_1   R33       1
    x_2_2_1   R52       1
    x_2_2_2   R5        1
    x_2_2_2   R21       1
    x_2_2_2   R37       1
    x_2_2_2   R52       1
    x_2_2_3   R6        1
    x_2_2_3   R21       1
    x_2_2_3   R41       1
    x_2_2_3   R53       1
    x_2_2_4   R7        1
    x_2_2_4   R21       1
    x_2_2_4   R45       1
    x_2_2_4   R53       1
    x_2_3_1   R8        1
    x_2_3_1   R25       1
    x_2_3_1   R33       1
    x_2_3_1   R54       1
    x_2_3_2   R9        1
    x_2_3_2   R25       1
    x_2_3_2   R37       1
    x_2_3_2   R54       1
    x_2_3_3   R10       1
    x_2_3_3   R25       1
    x_2_3_3   R41       1
    x_2_3_3   R55       1
    x_2_3_4   R11       1
    x_2_3_4   R25       1
    x_2_3_4   R45       1
    x_2_3_4   R55       1
    x_2_4_1   R12       1
    x_2_4_1   R29       1
    x_2_4_1   R33       1
    x_2_4_1   R54       1
    x_2_4_2   R13       1
    x_2_4_2   R29       1
    x_2_4_2   R37       1
    x_2_4_2   R54       1
    x_2_4_3   R14       1
    x_2_4_3   R29       1
    x_2_4_3   R41       1
    x_2_4_3   R55       1
    x_2_4_4   R15       1
    x_2_4_4   R29       1
    x_2_4_4   R45       1
    x_2_4_4   R55       1
    x_3_1_1   R0        1
    x_3_1_1   R18       1
    x_3_1_1   R34       1
    x_3_1_1   R56       1
    x_3_1_2   R1        1
    x_3_1_2   R18       1
    x_3_1_2   R38       1
    x_3_1_2   R56       1
    x_3_1_3   R2        1
    x_3_1_3   R18       1
    x_3_1_3   R42       1
    x_3_1_3   R57       1
    x_3_1_4   R3        1
    x_3_1_4   R18       1
    x_3_1_4   R46       1
    x_3_1_4   R57       1
    x_3_2_1   R4        1
    x_3_2_1   R22       1
    x_3_2_1   R34       1
    x_3_2_1   R56       1
    x_3_2_2   R5        1
    x_3_2_2   R22       1
    x_3_2_2   R38       1
    x_3_2_2   R56       1
    x_3_2_3   R6        1
    x_3_2_3   R22       1
    x_3_2_3   R42       1
    x_3_2_3   R57       1
    x_3_2_4   R7        1
    x_3_2_4   R22       1
    x_3_2_4   R46       1
    x_3_2_4   R57       1
    x_3_3_1   R8        1
    x_3_3_1   R26       1
    x_3_3_1   R34       1
    x_3_3_1   R58       1
    x_3_3_2   R9        1
    x_3_3_2   R26       1
    x_3_3_2   R38       1
    x_3_3_2   R58       1
    x_3_3_3   R10       1
    x_3_3_3   R26       1
    x_3_3_3   R42       1
    x_3_3_3   R59       1
    x_3_3_4   R11       1
    x_3_3_4   R26       1
    x_3_3_4   R46       1
    x_3_3_4   R59       1
    x_3_4_1   R12       1
    x_3_4_1   R30       1
    x_3_4_1   R34       1
    x_3_4_1   R58       1
    x_3_4_2   R13       1
    x_3_4_2   R30       1
    x_3_4_2   R38       1
    x_3_4_2   R58       1
    x_3_4_3   R14       1
    x_3_4_3   R30       1
    x_3_4_3   R42       1
    x_3_4_3   R59       1
    x_3_4_4   R15       1
    x_3_4_4   R30       1
    x_3_4_4   R46       1
    x_3_4_4   R59       1
    x_4_1_1   R0        1
    x_4_1_1   R19       1
    x_4_1_1   R35       1
    x_4_1_1   R60       1
    x_4_1_2   R1        1
    x_4_1_2   R19       1
    x_4_1_2   R39       1
    x_4_1_2   R60       1
    x_4_1_3   R2        1
    x_4_1_3   R19       1
    x_4_1_3   R43       1
    x_4_1_3   R61       1
    x_4_1_4   R3        1
    x_4_1_4   R19       1
    x_4_1_4   R47       1
    x_4_1_4   R61       1
    x_4_2_1   R4        1
    x_4_2_1   R23       1
    x_4_2_1   R35       1
    x_4_2_1   R60       1
    x_4_2_2   R5        1
    x_4_2_2   R23       1
    x_4_2_2   R39       1
    x_4_2_2   R60       1
    x_4_2_3   R6        1
    x_4_2_3   R23       1
    x_4_2_3   R43       1
    x_4_2_3   R61       1
    x_4_2_4   R7        1
    x_4_2_4   R23       1
    x_4_2_4   R47       1
    x_4_2_4   R61       1
    x_4_3_1   R8        1
    x_4_3_1   R27       1
    x_4_3_1   R35       1
    x_4_3_1   R62       1
    x_4_3_2   R9        1
    x_4_3_2   R27       1
    x_4_3_2   R39       1
    x_4_3_2   R62       1
    x_4_3_3   R10       1
    x_4_3_3   R27       1
    x_4_3_3   R43       1
    x_4_3_3   R63       1
    x_4_3_4   R11       1
    x_4_3_4   R27       1
    x_4_3_4   R47       1
    x_4_3_4   R63       1
    x_4_4_1   R12       1
    x_4_4_1   R31       1
    x_4_4_1   R35       1
    x_4_4_1   R62       1
    x_4_4_2   R13       1
    x_4_4_2   R31       1
    x_4_4_2   R39       1
    x_4_4_2   R62       1
    x_4_4_3   R14       1
    x_4_4_3   R31       1
    x_4_4_3   R43       1
    x_4_4_3   R63       1
    x_4_4_4   R15       1
    x_4_4_4   R31       1
    x_4_4_4   R47       1
    x_4_4_4   R63       1
    MARKER    'MARKER'                 'INTEND'
RHS
    RHS1      R0        1
    RHS1      R1        1
    RHS1      R2        1
    RHS1      R3        1
    RHS1      R4        1
    RHS1      R5        1
    RHS1      R6        1
    RHS1      R7        1
    RHS1      R8        1
    RHS1      R9        1
    RHS1      R10       1
    RHS1      R11       1
    RHS1      R12       1
    RHS1      R13       1
    RHS1      R14       1
    RHS1      R15       1
    RHS1      R16       1
    RHS1      R17       1
    RHS1      R18       1
    RHS1      R19       1
    RHS1      R20       1
    RHS1      R21       1
    RHS1      R22       1
    RHS1      R23       1
    RHS1      R24       1
    RHS1      R25       1
    RHS1      R26       1
    RHS1      R27       1
    RHS1      R28       1
    RHS1      R29       1
    RHS1      R30       1
    RHS1      R31       1
    RHS1      R32       1
    RHS1      R33       1
    RHS1      R34       1
    RHS1      R35       1
    RHS1      R36       1
    RHS1      R37       1
    RHS1      R38       1
    RHS1      R39       1
    RHS1      R40       1
    RHS1      R41       1
    RHS1      R42       1
    RHS1      R43       1
    RHS1      R44       1
    RHS1      R45       1
    RHS1      R46       1
    RHS1      R47       1
    RHS1      R48       1
    RHS1      R49       1
    RHS1      R50       1
    RHS1      R51       1
    RHS1      R52       1
    RHS1      R53       1
    RHS1      R54       1
    RHS1      R55       1
    RHS1      R56       1
    RHS1      R57       1
    RHS1      R58       1
    RHS1      R59       1
    RHS1      R60       1
    RHS1      R61       1
    RHS1      R62       1
    RHS1      R63       1
BOUNDS
 BV BND1      x_1_1_1 
 BV BND1      x_1_1_2 
 BV BND1      x_1_1_3 
 BV BND1      x_1_1_4 
 BV BND1      x_1_2_1 
 BV BND1      x_1_2_2 
 BV BND1      x_1_2_3 
 BV BND1      x_1_2_4 
 BV BND1      x_1_3_1 
 BV BND1      x_1_3_2 
 BV BND1      x_1_3_3 
 BV BND1      x_1_3_4 
 BV BND1      x_1_4_1 
 BV BND1      x_1_4_2 
 BV BND1      x_1_4_3 
 BV BND1      x_1_4_4 
 BV BND1      x_2_1_1 
 BV BND1      x_2_1_2 
 BV BND1      x_2_1_3 
 BV BND1      x_2_1_4 
 BV BND1      x_2_2_1 
 BV BND1      x_2_2_2 
 BV BND1      x_2_2_3 
 BV BND1      x_2_2_4 
 BV BND1      x_2_3_1 
 BV BND1      x_2_3_2 
 BV BND1      x_2_3_3 
 BV BND1      x_2_3_4 
 BV BND1      x_2_4_1 
 BV BND1      x_2_4_2 
 BV BND1      x_2_4_3 
 BV BND1      x_2_4_4 
 BV BND1      x_3_1_1 
 BV BND1      x_3_1_2 
 BV BND1      x_3_1_3 
 BV BND1      x_3_1_4 
 BV BND1      x_3_2_1 
 BV BND1      x_3_2_2 
 BV BND1      x_3_2_3 
 BV BND1      x_3_2_4 
 BV BND1      x_3_3_1 
 BV BND1      x_3_3_2 
 BV BND1      x_3_3_3 
 BV BND1      x_3_3_4 
 BV BND1      x_3_4_1 
 BV BND1      x_3_4_2 
 BV BND1      x_3_4_3 
 BV BND1      x_3_4_4 
 BV BND1      x_4_1_1 
 BV BND1      x_4_1_2 
 BV BND1      x_4_1_3 
 BV BND1      x_4_1_4 
 BV BND1      x_4_2_1 
 BV BND1      x_4_2_2 
 BV BND1      x_4_2_3 
 BV BND1      x_4_2_4 
 BV BND1      x_4_3_1 
 BV BND1      x_4_3_2 
 BV BND1      x_4_3_3 
 BV BND1      x_4_3_4 
 BV BND1      x_4_4_1 
 BV BND1      x_4_4_2 
 BV BND1      x_4_4_3 
 BV BND1      x_4_4_4 
ENDATA
